
Gurobi 10.0.3 (linux64, gurobi_cl) logging started Thu Nov  2 11:37:27 2023

Set parameter Username
Set parameter TimeLimit to value 3600
Set parameter LogFile to value "RCPSP_787.log"
Set parameter Threads to value 32
Academic license - for non-commercial use only - expires 2024-10-30
Using license file /home/jrivera6/gurobi-licenses/v1003/compute-0-39/gurobi.lic

Gurobi Optimizer version 10.0.3 build v10.0.3rc0 (linux64)
Copyright (c) 2023, Gurobi Optimization, LLC

Read MPS format model from file RCPSP_787.mps
Reading time = 0.04 seconds
RCPSP_787: 19643 rows, 7750 columns, 71917 nonzeros

CPU model: Intel(R) Xeon(R) Gold 6242 CPU @ 2.80GHz, instruction set [SSE2|AVX|AVX2|AVX512]
Thread count: 32 physical cores, 32 logical processors, using up to 32 threads

Optimize a model with 19643 rows, 7750 columns and 71917 nonzeros
Model fingerprint: 0xefa9b2e4
Variable types: 62 continuous, 7688 integer (7688 binary)
Coefficient statistics:
  Matrix range     [1e+00, 3e+02]
  Objective range  [1e+00, 1e+00]
  Bounds range     [1e+00, 1e+00]
  RHS range        [1e+00, 3e+02]
Presolve removed 9433 rows and 3618 columns
Presolve time: 4.51s
Presolved: 10210 rows, 4132 columns, 38324 nonzeros
Variable types: 61 continuous, 4071 integer (4071 binary)

Root relaxation: objective 7.600000e+01, 1350 iterations, 0.02 seconds (0.01 work units)

    Nodes    |    Current Node    |     Objective Bounds      |     Work
 Expl Unexpl |  Obj  Depth IntInf | Incumbent    BestBd   Gap | It/Node Time

     0     0   76.00000    0   12          -   76.00000      -     -    4s
H    0     0                      77.0000000   76.00000  1.30%     -    6s
     0     0   76.00000    0   16   77.00000   76.00000  1.30%     -    6s
     0     0   76.00000    0    5   77.00000   76.00000  1.30%     -   12s
     0     0   76.00000    0   26   77.00000   76.00000  1.30%     -   15s
H    0     0                      76.9999990   76.00000  1.30%     -   15s
H    0     0                      76.0000000   76.00000  0.00%     -   18s
     0     0   76.00000    0   76   76.00000   76.00000  0.00%     -   18s

Cutting planes:
  Gomory: 10
  Cover: 46
  Implied bound: 3
  Clique: 49
  MIR: 46
  StrongCG: 3
  RLT: 20
  Relax-and-lift: 15

Explored 1 nodes (6537 simplex iterations) in 18.41 seconds (4.03 work units)
Thread count was 32 (of 32 available processors)

Solution count 3: 76 77 77 

Optimal solution found (tolerance 1.00e-04)
Best objective 7.600000000000e+01, best bound 7.600000000000e+01, gap 0.0000%

Wrote result file 'RCPSP_787.sol'

